************************************************************************
file with basedata            : md365_.bas
initial value random generator: 367308831
************************************************************************
projects                      :  1
jobs (incl. supersource/sink ):  22
horizon                       :  136
RESOURCES
  - renewable                 :  2   R
  - nonrenewable              :  2   N
  - doubly constrained        :  0   D
************************************************************************
PROJECT INFORMATION:
pronr.  #jobs rel.date duedate tardcost  MPM-Time
    1     20      0       29       11       29
************************************************************************
PRECEDENCE RELATIONS:
jobnr.    #modes  #successors   successors
   1        1          3           2   3   4
   2        3          3           5   7   8
   3        3          1          10
   4        3          3           6  13  17
   5        3          3          11  13  15
   6        3          3           9  11  14
   7        3          3          12  16  17
   8        3          2           9  15
   9        3          3          10  16  18
  10        3          1          20
  11        3          2          18  21
  12        3          2          19  20
  13        3          2          14  19
  14        3          1          16
  15        3          2          17  18
  16        3          1          21
  17        3          1          20
  18        3          1          19
  19        3          1          22
  20        3          1          22
  21        3          1          22
  22        1          0        
************************************************************************
REQUESTS/DURATIONS:
jobnr. mode duration  R 1  R 2  N 1  N 2
------------------------------------------------------------------------
  1      1     0       0    0    0    0
  2      1     6       9    9    1    8
         2     8       7    8    1    7
         3    10       7    8    1    6
  3      1     5       6    5    6   10
         2     6       6    4    6   10
         3     9       6    4    6    9
  4      1     7       8   10    4    5
         2     8       7   10    4    5
         3     8       8   10    3    4
  5      1     2       8    3    6    8
         2     2       9    4    9    7
         3     3       7    2    2    5
  6      1     2       6    4    7    7
         2     4       4    3    4    4
         3     4       4    2    6    6
  7      1     5       5    5    4    6
         2     6       4    4    3    5
         3     7       2    2    3    4
  8      1     1       7    7    4    8
         2     3       4    6    4    8
         3    10       4    4    3    8
  9      1     4       9    4    6    6
         2     9       6    2    6    5
         3     9       4    3    6    4
 10      1     1       8    3    8    3
         2     1       7    3    9    3
         3     3       5    3    2    3
 11      1     1      10    6    4    9
         2     1      10    7    5    7
         3     7       9    1    4    5
 12      1     1       7    7    5    3
         2     2       5    7    4    3
         3     3       4    7    3    2
 13      1     2       4    8    9    2
         2     2       4    6   10    2
         3     3       2    5    8    2
 14      1     2       2    4    7    5
         2     3       2    4    5    4
         3     3       1    4    7    5
 15      1     4       5    4    9    4
         2     7       4    3    7    3
         3     9       4    2    2    3
 16      1     7       3    7    7    7
         2     8       1    4    6    7
         3     8       2    3    4    7
 17      1     6       5    6    7    7
         2     7       3    5    4    6
         3     8       2    5    1    6
 18      1     2       7    3    7    4
         2     4       5    2    4    3
         3     4       4    3    6    2
 19      1     1       6    6    6    4
         2     6       4    6    3    4
         3     9       3    6    2    4
 20      1     6       6    7    5    1
         2     7       6    6    3    1
         3     9       5    1    3    1
 21      1     9       7    4    6    5
         2     9       6    5    6    5
         3    10       4    1    3    5
 22      1     0       0    0    0    0
************************************************************************
RESOURCEAVAILABILITIES:
  R 1  R 2  N 1  N 2
   15   15   97  100
************************************************************************
MAXIMAL LAGS:
from  to  type  delay
    1   22   ES      0
    1    2   ES      0
    2   22   ES      0
    1    3   ES      0
    3   22   ES      0
    1    4   ES      0
    4   22   ES      0
    1    5   ES      0
    5   22   ES      0
    1    6   ES      0
    6   22   ES      0
    1    7   ES      0
    7   22   ES      0
    1    8   ES      0
    8   22   ES      0
    1    9   ES      0
    9   22   ES      0
    1   10   ES      0
   10   22   ES      0
    1   11   ES      0
   11   22   ES      0
    1   12   ES      0
   12   22   ES      0
    1   13   ES      0
   13   22   ES      0
    1   14   ES      0
   14   22   ES      0
    1   15   ES      0
   15   22   ES      0
    1   16   ES      0
   16   22   ES      0
    1   17   ES      0
   17   22   ES      0
    1   18   ES      0
   18   22   ES      0
    1   19   ES      0
   19   22   ES      0
    1   20   ES      0
   20   22   ES      0
    1   21   ES      0
   21   22   ES      0
    1   22   ES      0
    2    5   SS     12
    2    5   SE     12
    2    5   ES     10
    2    5   EE     -8
    2    7   SS      0
    2    7   SE     -8
    2    7   ES     -9
    2    7   EE      9
    2    8   SS      8
    2    8   SE    -11
    2    8   ES      3
    2    8   EE     -3
    3   10   SS     10
    3   10   SE    -10
    3   10   ES     -4
    3   10   EE     -4
    4    6   SS     -5
    4    6   SE    -12
    4    6   ES      8
    4    6   EE     -9
    4   13   SS    -12
    4   13   SE      0
    4   13   ES    -10
    4   13   EE     -4
    4   17   SS     -3
    4   17   SE     -1
    4   17   ES     -8
    4   17   EE      6
    5   11   SS      7
    5   11   SE      0
    5   11   ES     -3
    5   11   EE     -1
    5   13   SS     10
    5   13   SE      2
    5   13   ES     -3
    5   13   EE     -4
    5   15   SS     -6
    5   15   SE     -6
    5   15   ES    -10
    5   15   EE      7
    6    9   SS      7
    6    9   SE      3
    6    9   ES     -9
    6    9   EE     -9
    6   11   SS      9
    6   11   SE     -1
    6   11   ES     -5
    6   11   EE     -5
    6   14   SS     -5
    6   14   SE     -4
    6   14   ES      6
    6   14   EE      2
    7   12   SS     -7
    7   12   SE      7
    7   12   ES      1
    7   12   EE      7
    7   16   SS      2
    7   16   SE    -12
    7   16   ES    -10
    7   16   EE    -12
    7   17   SS     12
    7   17   SE    -11
    7   17   ES     11
    7   17   EE     -6
    8    9   SS      8
    8    9   SE     -3
    8    9   ES     -5
    8    9   EE     -3
    8   15   SS     -3
    8   15   SE      7
    8   15   ES      7
    8   15   EE      3
    9   10   SS     -1
    9   10   SE     11
    9   10   ES     10
    9   10   EE      5
    9   16   SS     10
    9   16   SE     -1
    9   16   ES      5
    9   16   EE     10
    9   18   SS      1
    9   18   SE      8
    9   18   ES    -10
    9   18   EE     11
   10   20   SS      4
   10   20   SE      4
   10   20   ES      4
   10   20   EE    -10
   11   18   SS      3
   11   18   SE      4
   18   11   SE      0
   11   18   ES      0
   11   18   EE    -11
   11   21   SS     10
   11   21   SE     -8
   11   21   ES     -9
   11   21   EE     -1
   12   19   SS      6
   12   19   SE      6
   12   19   ES     -8
   12   19   EE      3
   12   20   SS      7
   12   20   SE     -4
   12   20   ES     -6
   12   20   EE      2
   13   14   SS      1
   13   14   SE     -5
   13   14   ES      4
   13   14   EE     -8
   13   19   SS      3
   13   19   SE     -3
   13   19   ES      6
   13   19   EE    -11
   14   16   SS     -6
   14   16   SE     -6
   14   16   ES     -9
   14   16   EE     -7
   15   17   SS     -7
   15   17   SE     -7
   15   17   ES     -5
   15   17   EE      7
   15   18   SS     -2
   15   18   SE     -4
   15   18   ES      5
   15   18   EE    -11
   16   21   SS      2
   16   21   SE    -12
   16   21   ES     -3
   16   21   EE      2
   17   20   SS     -6
   17   20   SE      9
   17   20   ES     -9
   17   20   EE     -3
   18   19   SS     11
   18   19   SE     11
   18   19   ES      4
   18   19   EE     -6
************************************************************************
